(set-logic QF_SLIA)
(declare-const result String)
(declare-const attack String)
(declare-const prefix RegLan)
(declare-const infix RegLan)
(declare-const postfix RegLan)
(declare-const postfixs String)

(assert (str.in_re attack (re.++ prefix ((_ re.loop 32 32) infix) postfix)))
(assert (= prefix 
     (str.to_re "\x22")
))
(assert (= infix 
         (re.++  (str.to_re "\x26") (re.++  (str.to_re "\x5c\x72") (re.++  (str.to_re "\x5c\x6e") (re.++  (str.to_re "\x21")  (str.to_re "\x31")))))
))
(assert (= postfix 
        (str.to_re "")
))
(assert (str.in_re postfixs postfix))
(assert (>= (str.len postfixs) 1))
(assert (= result (str.++ attack postfixs)))
(check-sat)
(get-model)